c File: flat50_3_0.col
c
c SOURCE: Joseph Culberson (joe@cs.ualberta.ca)
c DESCRIPTION: Quasi-random coloring problem
c              generated with flatness = 0
c                             probability = 0.139
c                             known coloring = 3
c                             random seed = 1497
c              Creation Date:  Tue Jun  9 12:10:47 1998
c Maximum degree = 8 Minimum degree = 1
c p edge 50 115
c cnf created by edge2cnf
p cnf 150 545
-1 -2 0
-1 -3 0
-2 -3 0
1 2 3 0
-4 -5 0
-4 -6 0
-5 -6 0
4 5 6 0
-7 -8 0
-7 -9 0
-8 -9 0
7 8 9 0
-10 -11 0
-10 -12 0
-11 -12 0
10 11 12 0
-13 -14 0
-13 -15 0
-14 -15 0
13 14 15 0
-16 -17 0
-16 -18 0
-17 -18 0
16 17 18 0
-19 -20 0
-19 -21 0
-20 -21 0
19 20 21 0
-22 -23 0
-22 -24 0
-23 -24 0
22 23 24 0
-25 -26 0
-25 -27 0
-26 -27 0
25 26 27 0
-28 -29 0
-28 -30 0
-29 -30 0
28 29 30 0
-31 -32 0
-31 -33 0
-32 -33 0
31 32 33 0
-34 -35 0
-34 -36 0
-35 -36 0
34 35 36 0
-37 -38 0
-37 -39 0
-38 -39 0
37 38 39 0
-40 -41 0
-40 -42 0
-41 -42 0
40 41 42 0
-43 -44 0
-43 -45 0
-44 -45 0
43 44 45 0
-46 -47 0
-46 -48 0
-47 -48 0
46 47 48 0
-49 -50 0
-49 -51 0
-50 -51 0
49 50 51 0
-52 -53 0
-52 -54 0
-53 -54 0
52 53 54 0
-55 -56 0
-55 -57 0
-56 -57 0
55 56 57 0
-58 -59 0
-58 -60 0
-59 -60 0
58 59 60 0
-61 -62 0
-61 -63 0
-62 -63 0
61 62 63 0
-64 -65 0
-64 -66 0
-65 -66 0
64 65 66 0
-67 -68 0
-67 -69 0
-68 -69 0
67 68 69 0
-70 -71 0
-70 -72 0
-71 -72 0
70 71 72 0
-73 -74 0
-73 -75 0
-74 -75 0
73 74 75 0
-76 -77 0
-76 -78 0
-77 -78 0
76 77 78 0
-79 -80 0
-79 -81 0
-80 -81 0
79 80 81 0
-82 -83 0
-82 -84 0
-83 -84 0
82 83 84 0
-85 -86 0
-85 -87 0
-86 -87 0
85 86 87 0
-88 -89 0
-88 -90 0
-89 -90 0
88 89 90 0
-91 -92 0
-91 -93 0
-92 -93 0
91 92 93 0
-94 -95 0
-94 -96 0
-95 -96 0
94 95 96 0
-97 -98 0
-97 -99 0
-98 -99 0
97 98 99 0
-100 -101 0
-100 -102 0
-101 -102 0
100 101 102 0
-103 -104 0
-103 -105 0
-104 -105 0
103 104 105 0
-106 -107 0
-106 -108 0
-107 -108 0
106 107 108 0
-109 -110 0
-109 -111 0
-110 -111 0
109 110 111 0
-112 -113 0
-112 -114 0
-113 -114 0
112 113 114 0
-115 -116 0
-115 -117 0
-116 -117 0
115 116 117 0
-118 -119 0
-118 -120 0
-119 -120 0
118 119 120 0
-121 -122 0
-121 -123 0
-122 -123 0
121 122 123 0
-124 -125 0
-124 -126 0
-125 -126 0
124 125 126 0
-127 -128 0
-127 -129 0
-128 -129 0
127 128 129 0
-130 -131 0
-130 -132 0
-131 -132 0
130 131 132 0
-133 -134 0
-133 -135 0
-134 -135 0
133 134 135 0
-136 -137 0
-136 -138 0
-137 -138 0
136 137 138 0
-139 -140 0
-139 -141 0
-140 -141 0
139 140 141 0
-142 -143 0
-142 -144 0
-143 -144 0
142 143 144 0
-145 -146 0
-145 -147 0
-146 -147 0
145 146 147 0
-148 -149 0
-148 -150 0
-149 -150 0
148 149 150 0
-85 -1 0
-86 -2 0
-87 -3 0
-112 -1 0
-113 -2 0
-114 -3 0
-115 -1 0
-116 -2 0
-117 -3 0
-133 -1 0
-134 -2 0
-135 -3 0
-145 -1 0
-146 -2 0
-147 -3 0
-61 -4 0
-62 -5 0
-63 -6 0
-82 -4 0
-83 -5 0
-84 -6 0
-94 -4 0
-95 -5 0
-96 -6 0
-97 -4 0
-98 -5 0
-99 -6 0
-127 -4 0
-128 -5 0
-129 -6 0
-142 -4 0
-143 -5 0
-144 -6 0
-52 -7 0
-53 -8 0
-54 -9 0
-58 -7 0
-59 -8 0
-60 -9 0
-136 -7 0
-137 -8 0
-138 -9 0
-145 -7 0
-146 -8 0
-147 -9 0
-85 -10 0
-86 -11 0
-87 -12 0
-97 -10 0
-98 -11 0
-99 -12 0
-100 -10 0
-101 -11 0
-102 -12 0
-121 -10 0
-122 -11 0
-123 -12 0
-130 -10 0
-131 -11 0
-132 -12 0
-61 -13 0
-62 -14 0
-63 -15 0
-79 -13 0
-80 -14 0
-81 -15 0
-109 -13 0
-110 -14 0
-111 -15 0
-121 -13 0
-122 -14 0
-123 -15 0
-127 -13 0
-128 -14 0
-129 -15 0
-64 -16 0
-65 -17 0
-66 -18 0
-100 -16 0
-101 -17 0
-102 -18 0
-112 -16 0
-113 -17 0
-114 -18 0
-52 -19 0
-53 -20 0
-54 -21 0
-124 -19 0
-125 -20 0
-126 -21 0
-145 -19 0
-146 -20 0
-147 -21 0
-58 -22 0
-59 -23 0
-60 -24 0
-67 -22 0
-68 -23 0
-69 -24 0
-70 -22 0
-71 -23 0
-72 -24 0
-64 -25 0
-65 -26 0
-66 -27 0
-70 -25 0
-71 -26 0
-72 -27 0
-91 -25 0
-92 -26 0
-93 -27 0
-94 -25 0
-95 -26 0
-96 -27 0
-106 -25 0
-107 -26 0
-108 -27 0
-109 -25 0
-110 -26 0
-111 -27 0
-124 -25 0
-125 -26 0
-126 -27 0
-61 -28 0
-62 -29 0
-63 -30 0
-82 -28 0
-83 -29 0
-84 -30 0
-91 -28 0
-92 -29 0
-93 -30 0
-124 -28 0
-125 -29 0
-126 -30 0
-127 -28 0
-128 -29 0
-129 -30 0
-142 -28 0
-143 -29 0
-144 -30 0
-58 -31 0
-59 -32 0
-60 -33 0
-106 -31 0
-107 -32 0
-108 -33 0
-112 -31 0
-113 -32 0
-114 -33 0
-136 -31 0
-137 -32 0
-138 -33 0
-145 -31 0
-146 -32 0
-147 -33 0
-70 -34 0
-71 -35 0
-72 -36 0
-52 -37 0
-53 -38 0
-54 -39 0
-61 -37 0
-62 -38 0
-63 -39 0
-73 -37 0
-74 -38 0
-75 -39 0
-97 -37 0
-98 -38 0
-99 -39 0
-118 -37 0
-119 -38 0
-120 -39 0
-142 -37 0
-143 -38 0
-144 -39 0
-67 -40 0
-68 -41 0
-69 -42 0
-85 -40 0
-86 -41 0
-87 -42 0
-91 -40 0
-92 -41 0
-93 -42 0
-97 -40 0
-98 -41 0
-99 -42 0
-106 -40 0
-107 -41 0
-108 -42 0
-115 -40 0
-116 -41 0
-117 -42 0
-127 -40 0
-128 -41 0
-129 -42 0
-136 -40 0
-137 -41 0
-138 -42 0
-58 -43 0
-59 -44 0
-60 -45 0
-130 -43 0
-131 -44 0
-132 -45 0
-148 -43 0
-149 -44 0
-150 -45 0
-52 -46 0
-53 -47 0
-54 -48 0
-64 -46 0
-65 -47 0
-66 -48 0
-91 -46 0
-92 -47 0
-93 -48 0
-55 -49 0
-56 -50 0
-57 -51 0
-103 -49 0
-104 -50 0
-105 -51 0
-109 -49 0
-110 -50 0
-111 -51 0
-112 -49 0
-113 -50 0
-114 -51 0
-109 -52 0
-110 -53 0
-111 -54 0
-115 -52 0
-116 -53 0
-117 -54 0
-115 -55 0
-116 -56 0
-117 -57 0
-121 -55 0
-122 -56 0
-123 -57 0
-103 -58 0
-104 -59 0
-105 -60 0
-118 -58 0
-119 -59 0
-120 -60 0
-118 -61 0
-119 -62 0
-120 -63 0
-121 -61 0
-122 -62 0
-123 -63 0
-124 -61 0
-125 -62 0
-126 -63 0
-106 -64 0
-107 -65 0
-108 -66 0
-145 -64 0
-146 -65 0
-147 -66 0
-121 -67 0
-122 -68 0
-123 -69 0
-142 -67 0
-143 -68 0
-144 -69 0
-106 -70 0
-107 -71 0
-108 -72 0
-115 -70 0
-116 -71 0
-117 -72 0
-118 -70 0
-119 -71 0
-120 -72 0
-127 -73 0
-128 -74 0
-129 -75 0
-142 -73 0
-143 -74 0
-144 -75 0
-145 -73 0
-146 -74 0
-147 -75 0
-124 -76 0
-125 -77 0
-126 -78 0
-103 -82 0
-104 -83 0
-105 -84 0
-109 -82 0
-110 -83 0
-111 -84 0
-136 -82 0
-137 -83 0
-138 -84 0
-127 -85 0
-128 -86 0
-129 -87 0
-136 -85 0
-137 -86 0
-138 -87 0
-139 -85 0
-140 -86 0
-141 -87 0
-118 -88 0
-119 -89 0
-120 -90 0
-103 -91 0
-104 -92 0
-105 -93 0
-139 -91 0
-140 -92 0
-141 -93 0
-133 -94 0
-134 -95 0
-135 -96 0
-112 -97 0
-113 -98 0
-114 -99 0
-115 -97 0
-116 -98 0
-117 -99 0
-133 -97 0
-134 -98 0
-135 -99 0
-142 -97 0
-143 -98 0
-144 -99 0
-109 -100 0
-110 -101 0
-111 -102 0
-121 -100 0
-122 -101 0
-123 -102 0
-124 -100 0
-125 -101 0
-126 -102 0
-136 -100 0
-137 -101 0
-138 -102 0
